c instance by G2
c solution = 0111011110000
c Known solution cost is 531 
p cnf 13 30
w 81 9 28 56 63 42 6 60 9 28 64 38 47
-6 -12 -3 0
-7 -2 -12 0
-1 -7 -4 0
12 -10 -4 0
9 13 -12 0
-1 8 5 0
2 -4 12 0
-13 6 -8 0
-7 3 2 0
2 -9 -6 0
5 -11 -9 0
7 4 -3 0
-5 -9 1 0
-10 9 4 0
-13 8 -1 0
9 -4 11 0
12 6 -3 0
-13 -7 10 0
-13 5 2 0
-2 8 12 0
13 8 6 0
2 -4 1 0
3 -7 13 0
7 11 1 0
11 -3 6 0
9 -8 -11 0
4 -2 6 0
-8 4 5 0
-1 7 6 0
-8 -2 4 0
